p cnf 100 240
95 -19 8 0
66 72 15 0
5 82 8 0
-96 -85 -45 0
-76 -73 32 0
-48 -37 -5 0
83 -1 -32 0
57 15 67 0
-71 21 -50 0
46 -37 98 0
-58 83 29 0
-58 67 -54 0
92 88 -76 0
-34 5 -92 0
35 41 1 0
7 11 32 0
63 38 61 0
13 20 50 0
-19 81 -70 0
36 -7 5 0
-2 -80 70 0
-41 -80 40 0
12 -61 5 0
-91 86 88 0
-24 9 -32 0
28 42 -36 0
-13 -83 22 0
91 -68 -31 0
-40 -27 -99 0
61 -83 -57 0
-72 54 36 0
60 -85 94 0
15 71 -100 0
-69 -78 -51 0
77 70 -43 0
-54 2 90 0
37 -20 46 0
-24 -91 40 0
-2 71 -9 0
75 55 86 0
-84 -25 -53 0
-15 -76 25 0
-3 -5 -26 0
-85 -45 -43 0
-46 -37 25 0
-87 -79 -89 0
28 26 -66 0
-4 -5 -66 0
-21 37 -45 0
65 -88 -7 0
11 -1 -52 0
-97 66 51 0
64 57 19 0
-23 19 7 0
-99 -96 85 0
70 45 64 0
-60 -66 -55 0
-61 68 -29 0
56 -67 1 0
83 -45 -33 0
21 65 23 0
57 98 46 0
-51 27 70 0
12 -34 77 0
-74 -88 84 0
29 -27 -78 0
51 91 -79 0
-7 -60 -52 0
40 87 -7 0
36 -89 -41 0
-41 45 -21 0
-8 15 -100 0
-56 66 -40 0
-23 7 27 0
74 5 -40 0
-92 -75 76 0
-87 -51 23 0
23 -7 -1 0
-79 -48 24 0
44 -88 -99 0
-66 -41 -30 0
84 83 -53 0
64 60 18 0
53 60 -57 0
32 -49 -4 0
27 69 5 0
-69 19 -79 0
85 95 -40 0
54 60 52 0
42 -1 -77 0
-68 16 52 0
18 41 -17 0
41 33 97 0
37 49 -13 0
-21 52 34 0
-66 -51 -36 0
36 -63 23 0
93 79 -39 0
50 -41 -19 0
-27 31 -98 0
-51 65 -70 0
-93 92 -77 0
-59 -34 51 0
45 -97 92 0
-33 -49 -24 0
-15 66 -54 0
-43 86 27 0
44 -32 21 0
95 41 80 0
6 -71 -72 0
-33 80 -9 0
-78 20 60 0
-65 -42 -2 0
54 62 97 0
30 -90 10 0
87 -88 39 0
72 91 -63 0
23 8 78 0
-21 61 -12 0
16 -23 66 0
29 -84 -25 0
-43 -54 83 0
82 -66 46 0
24 -69 28 0
76 -66 -16 0
-11 -65 -23 0
-73 -87 -31 0
21 68 -12 0
-72 76 -18 0
57 -44 12 0
-61 -28 59 0
75 24 60 0
-24 21 6 0
-8 -16 -98 0
39 73 -89 0
19 -45 -21 0
-5 -8 -88 0
83 -74 100 0
-46 96 -89 0
71 -24 52 0
46 -92 -29 0
81 -41 64 0
62 27 88 0
60 -28 45 0
8 1 73 0
-49 10 -1 0
62 36 -34 0
29 -67 83 0
-92 -74 73 0
-41 -20 -76 0
6 16 -89 0
-64 38 95 0
-99 22 97 0
-44 -71 90 0
46 -11 -51 0
43 -63 -55 0
-98 -82 -23 0
-79 36 100 0
43 21 -67 0
86 93 20 0
98 77 33 0
-57 -64 -28 0
-93 50 13 0
50 -38 -1 0
2 97 94 0
39 -70 -61 0
-37 94 30 0
71 98 22 0
-12 87 -83 0
-36 91 -9 0
85 -10 -19 0
16 -45 -98 0
54 -89 86 0
17 -1 92 0
-25 32 51 0
71 18 -97 0
80 98 88 0
68 -65 73 0
-94 -64 92 0
-47 -37 -72 0
-97 -31 55 0
75 -38 71 0
36 2 -63 0
2 56 -60 0
-24 56 -59 0
-1 -69 -60 0
-15 17 62 0
-97 -28 -33 0
-65 94 -10 0
49 -57 -70 0
68 49 -86 0
-6 3 70 0
28 32 48 0
71 -13 59 0
54 42 -62 0
-83 75 -72 0
73 42 -63 0
39 79 -12 0
73 -69 48 0
-50 69 78 0
x -2 3 -4 -5 -8 10 12 14 -16 18 21 -27 28 34 -36 -37 -39 41 44 -45 46 -47 -48 -50 -51 -52 -53 -55 57 -58 60 -63 65 67 68 -73 -75 -79 80 81 83 -87 -90 92 -93 95 -97 99 0
x -2 -3 -5 -7 13 14 -18 19 20 23 -24 26 28 34 36 -37 -41 43 48 51 52 59 60 62 63 -64 65 -66 67 -70 73 -75 -78 -80 84 -89 -90 91 92 -93 -94 95 97 -98 99 -100 0
x -1 3 -7 8 9 12 16 -17 -20 -21 22 24 25 27 -28 -29 -31 -32 33 36 -37 40 -41 43 44 -45 -48 50 -51 52 -54 55 56 57 -61 62 63 -68 -69 -71 72 80 -81 -85 -86 87 89 -90 91 -92 93 94 95 -96 -98 -99 0
x -1 2 3 5 6 -7 10 -11 13 16 17 19 -20 -21 -25 26 27 -29 -31 -33 -34 35 40 41 43 -44 46 58 -59 -63 64 65 67 68 -71 72 76 82 83 90 92 93 -94 -96 97 -99 0
x 1 -2 4 -7 9 10 12 14 16 17 -18 -19 -21 22 -25 -26 -29 30 -33 36 37 38 -41 45 47 48 52 -54 58 59 60 63 64 68 -70 72 -73 74 76 77 -78 -79 -81 91 -95 -97 0
x -2 3 -4 -5 6 -8 -9 11 -12 -14 15 -16 17 -18 19 -21 -23 -24 25 26 28 -32 34 -36 -37 39 42 -44 46 47 51 -52 53 -56 57 59 60 -61 -63 70 71 72 -73 -75 -76 77 78 -79 -83 84 -85 -86 87 88 -92 -96 98 99 0
x 1 -5 -8 12 13 -17 -18 -19 23 29 -30 35 36 41 -49 -50 -52 53 -55 -58 -62 -63 65 -68 -71 72 -73 74 -77 81 -82 83 -84 89 90 -93 95 97 98 99 0
x -4 7 -9 11 15 -16 18 -19 20 -21 -22 23 28 29 -31 -33 -37 47 49 50 55 -57 61 62 63 -64 65 -66 -67 -68 -69 71 -73 74 -75 -76 -77 85 90 95 -96 -97 0
x -1 4 5 6 -8 9 11 -12 -13 -16 -18 21 22 23 -24 25 26 -30 -31 32 33 37 39 40 -45 47 51 53 -54 55 56 58 -59 60 62 -67 -68 69 -72 74 77 -78 79 -80 -83 -85 -94 -95 97 0
x -2 -3 4 -5 -8 -9 -10 -11 -14 -17 -18 -20 23 24 25 -27 -28 33 35 39 -42 -43 46 49 50 52 54 55 -60 -61 -63 67 68 75 -77 -79 80 83 87 88 91 -92 -94 -95 -96 97 98 0
x 2 9 11 14 -15 -16 -17 -18 19 20 23 25 -33 -34 -37 -38 39 40 43 -46 -48 50 -51 -52 -55 57 -59 60 62 -63 64 -67 -70 -79 -80 81 -83 84 88 89 90 -93 94 96 99 0
x -1 -7 8 -9 -10 12 23 -28 34 35 38 42 -44 49 50 51 52 55 -56 -57 -59 -61 63 64 -65 -66 -67 -68 71 -73 74 75 -77 78 -80 83 86 -87 89 -92 94 -97 0
x -1 -2 -3 -4 -6 12 15 -16 17 -18 -19 -21 -22 23 24 25 -28 -30 31 33 34 35 -36 38 39 40 -41 45 47 -49 54 -56 -58 59 -61 -62 64 65 -67 -70 -71 76 80 -81 82 -83 -87 -90 -94 95 96 98 0
x 6 9 -13 -14 16 17 19 23 25 -28 31 -32 -33 34 -39 -40 43 -53 54 56 -57 -59 -60 -61 -65 68 -70 74 78 -79 80 82 -84 85 86 -90 94 95 100 0
x -1 -5 9 -13 14 15 -16 17 18 19 -20 -22 23 -29 30 -33 -34 37 -38 39 -41 49 -51 54 -56 59 61 63 64 -65 66 67 68 -70 71 -74 -76 77 81 -82 83 -85 -87 88 89 -90 94 -96 99 0
x 1 -2 3 4 -5 6 9 -10 -11 -13 -14 -16 20 -22 24 25 -31 34 -35 -39 40 43 45 -46 51 -52 -53 54 -56 -58 -59 -61 62 64 -65 -66 67 -69 -70 73 74 -76 -80 81 -85 -86 -87 -91 -94 -96 -97 0
x -1 3 8 9 13 14 -15 16 17 -18 19 20 21 -23 24 -26 27 -29 -30 -32 33 37 -38 -43 -44 45 -46 -48 50 -55 58 -63 -65 -68 -69 72 74 -75 -77 -78 -79 -80 81 -83 -88 -92 93 -97 -99 -100 0
x 1 2 -3 -4 5 6 -11 12 14 -17 -21 -22 24 28 32 -35 39 -41 -44 -45 -46 -47 49 -51 53 -54 58 59 -60 -61 64 65 67 68 69 -73 -76 -80 -82 -84 86 -88 -89 90 -91 -92 -94 96 0
x 1 2 4 -5 -7 -8 -10 11 -14 -17 18 19 20 -21 23 -24 -26 -30 35 36 39 40 42 -43 -44 45 -46 48 50 51 52 55 -56 -57 58 -59 60 -61 62 -64 67 -68 70 72 76 79 80 -81 82 85 -86 -88 89 -92 -93 97 0
x 2 3 -4 6 7 -9 12 14 16 17 -18 19 20 -24 26 28 30 33 36 -37 -38 -41 43 -48 -50 51 53 58 -62 -63 64 66 67 -69 -70 71 72 -73 74 -75 76 77 80 81 82 85 86 87 88 -91 93 94 95 98 -100 0
x -3 4 8 10 11 17 23 -25 -27 -33 -37 38 -42 -46 -49 51 -52 -55 -59 -61 -65 66 -67 -71 -72 -73 -76 -80 81 -83 -87 90 91 -93 -94 -95 96 -99 100 0
x 1 -2 -3 -5 -6 -7 9 11 16 -22 -24 26 -27 -28 -29 30 31 33 -36 42 43 -47 -49 51 -53 -54 -56 58 59 -60 62 66 -67 68 70 -71 -72 -73 74 77 -80 82 85 -86 -87 89 90 -91 -94 -98 0
x 1 6 8 -9 12 15 16 -21 -22 -23 -24 27 -30 -31 -32 -34 -37 -40 -41 -44 -45 -49 -50 51 -53 57 58 60 61 63 -70 -73 -74 -75 77 79 -82 -84 -91 -92 -95 97 98 99 -100 0
x 1 -2 3 4 -5 13 -14 -15 16 17 18 -20 -21 26 29 -31 -32 -35 41 43 44 45 46 47 -49 -53 -55 56 -57 58 59 60 61 64 -66 -70 72 73 -74 -77 79 80 -82 -84 85 -88 89 -90 -91 -94 -95 96 97 -98 100 0
x -1 2 -4 -6 -8 10 -11 -12 13 16 -20 21 -22 24 25 -27 29 30 -31 34 36 -37 -38 40 43 -44 45 -46 47 -50 53 -54 -56 -57 -58 -59 60 61 -62 -66 67 69 70 73 -74 -75 -78 -81 -83 85 86 -93 94 97 98 -99 0
x 1 3 -4 5 7 8 9 10 -11 -15 -18 -24 -25 26 -27 28 -32 33 -35 36 -37 -38 -41 42 43 -46 47 48 -50 -52 -59 60 -61 -64 -65 -68 -70 71 74 -75 79 81 -82 -83 84 -87 -91 95 96 98 99 0
x -1 3 -4 -6 -7 -8 12 -15 -17 18 -22 23 -27 -29 -32 35 38 -39 41 42 -43 -46 48 49 -50 52 54 55 -56 60 66 67 -68 70 72 76 77 -85 87 88 -89 91 92 -95 97 -98 99 -100 0
x 2 3 -4 -8 9 10 -11 -12 -17 -20 21 -22 -24 -25 -26 27 28 -29 31 32 -34 35 -36 42 43 -44 -47 48 -50 -57 -58 -63 -67 68 -69 -71 -73 74 75 78 -79 -80 83 84 -88 -90 94 -95 -96 -98 0
x -1 3 -4 6 10 -12 -13 14 17 -18 -22 -26 -27 28 34 41 -42 -44 -45 -46 -47 53 54 55 -59 -64 65 73 -78 -79 80 -81 -83 86 88 89 90 -91 -92 -93 94 96 100 0
x 1 6 7 -8 9 11 -13 16 -17 -18 -19 -20 -21 22 26 -28 -29 -30 31 33 -34 36 -37 38 -47 -48 -54 55 -56 -57 58 -59 60 -64 -69 -70 -71 74 77 80 86 -90 92 96 -99 -100 0
x -3 4 5 6 -7 9 -10 12 14 15 -18 -19 21 22 28 -30 -31 -38 -39 40 -41 45 -47 -48 -49 52 53 58 59 -61 -62 63 -64 -67 70 71 -73 -75 76 77 80 -81 82 83 -84 -85 86 -91 94 95 -96 -98 0
x -1 8 9 11 13 -15 17 -18 22 -24 -25 -28 -29 30 34 -40 -42 43 -46 47 48 -51 -52 53 -54 55 -61 63 -64 -66 67 69 -71 72 74 -75 77 -79 81 83 -84 86 -87 -88 89 90 -91 93 94 -95 -98 -99 0
x -2 -4 5 -7 9 -11 12 -13 -19 21 -22 -26 27 28 -29 -30 -33 -37 -41 43 44 46 50 51 -52 -53 -54 55 58 -60 -61 62 63 -66 68 71 -73 -75 78 79 -81 83 84 85 87 -88 -89 90 -91 -93 95 96 -97 98 0
x -4 9 -11 -12 14 -16 17 20 23 -25 30 -31 -33 34 36 -37 39 -40 44 48 52 -53 -54 -56 -60 -61 63 64 -70 -71 -74 -76 -78 80 82 90 92 -95 96 98 99 -100 0
x -2 4 5 -8 9 -10 13 15 17 -18 21 22 -23 -24 30 -31 -33 -36 -37 -38 41 -43 -45 47 -48 -49 54 59 -60 62 64 65 -68 -70 77 78 -80 81 -84 -85 86 -93 -94 95 97 -99 -100 0
x 2 3 8 11 -12 -13 18 21 -22 -24 -26 27 -28 -29 31 35 -37 38 41 -44 45 47 48 49 -56 -57 58 -59 63 -64 -65 66 -68 -72 -74 78 -81 -83 85 -86 89 -91 -94 95 96 -97 99 -100 0
x -2 -4 -6 -7 8 -15 -17 18 -19 20 -22 -23 24 -26 27 -29 -30 -35 36 40 41 42 43 -44 -46 49 -53 -54 56 59 -60 62 -64 -66 69 70 -78 -79 80 81 -83 -86 -88 -89 -90 91 95 97 100 0
x 2 3 -8 11 13 15 16 17 18 -21 -24 -25 -27 -28 -31 32 34 -35 -36 38 -39 41 42 45 -46 47 49 50 -54 56 57 59 60 -63 64 -65 66 70 -71 -72 -73 -75 -78 -79 -81 82 -84 85 88 -89 -90 98 100 0
x 2 4 5 6 -7 -8 -9 -12 -13 15 18 -21 -24 26 27 -31 -32 33 34 35 -36 -40 -42 43 -45 -48 -50 54 -55 -57 -58 -61 63 64 66 71 -83 86 -87 -89 90 -92 93 -94 -95 97 -98 0
x -1 3 -6 -7 9 -11 12 13 16 -20 -25 27 28 -31 32 -33 -34 38 -39 42 43 44 -48 49 -50 51 52 -54 56 -57 58 61 63 65 -68 -69 -70 -72 73 75 78 82 83 86 -87 -88 -92 -93 -94 95 96 97 98 -99 -100 0
